************************************************************************
file with basedata            : mm3_.bas
initial value random generator: 632771121
************************************************************************
projects                      :  1
jobs (incl. supersource/sink ):  12
horizon                       :  83
RESOURCES
  - renewable                 :  2   R
  - nonrenewable              :  2   N
  - doubly constrained        :  0   D
************************************************************************
PROJECT INFORMATION:
pronr.  #jobs rel.date duedate tardcost  MPM-Time
    1     10      0       10        7       10
************************************************************************
PRECEDENCE RELATIONS:
jobnr.    #modes  #successors   successors
   0        1          3           1   2   3
   1        3          1          10
   2        3          2           4   5
   3        3          1           7
   4        3          2           8   9
   5        3          3           6   7  10
   6        3          2           8   9
   7        3          1           8
   8        3          1          11
   9        3          1          11
  10        3          1          11
  11        1          0        
************************************************************************
REQUESTS/DURATIONS:
jobnr. mode duration  R 1  R 2  R 3  R 4  E(W 1)  E(W 2)  E(W 3)
------------------------------------------------------------------------
  0      1     0       0    0    0    0     0       0       0
  1      1     3       0    6    0    7    18       0      21
  2      1     1       0    4    4    0     4       4       0
  3      1     2       0    6    0    9    12       0      18
  4      1     1       5    0    0    6     5       0       6
  5      1     3       0    5    0    4    15       0      12
  6      1     4       0    9    0    3    36       0      12
  7      1     1       0    6    8    0     6       8       0
  8      1     2      10    0    0    8    20       0      16
  9      1     1       0    6    7    0     6       7       0
 10      1     3       0    4    8    0    12      24       0
 11      1     0       0    0    0    0     0       0       0
************************************************************************
RESOURCEAVAILABILITIES:
  R 1  R 2  R 3
   16   33   42
************************************************************************
RESOURCE LIMITS:
jobnr.  l(R 1)  u(R 1)  l(R 2)  u(R 2)  l(R 3)  u(R 3)
------------------------------------------------------------------------
  0        0       0       0       0       0       0
  1        3       6       0       0       4       7
  2        2       4       2       4       0       0
  3        3       6       0       0       5       9
  4        3       5       0       0       3       6
  5        3       5       0       0       2       4
  6        5       9       0       0       2       3
  7        3       6       4       8       0       0
  8        5      10       0       0       4       8
  9        3       6       4       7       0       0
 10        2       4       4       8       0       0
 11        0       0       0       0       0       0
************************************************************************
SCENARIOS:
------------------------------------------------------------------------
RESOURCE k = 1
s = 1: (0, 19, 4, 13, 6, 15, 34, 7, 14, 7, 11, 0)
s = 2: (0, 15, 7, 8, 5, 16, 28, 9, 26, 8, 16, 0)
s = 3: (0, 29, 4, 17, 3, 20, 36, 5, 36, 8, 18, 0)
s = 4: (0, 25, 5, 13, 4, 16, 33, 5, 24, 7, 8, 0)
s = 5: (0, 14, 6, 10, 4, 13, 51, 6, 24, 9, 22, 0)
s = 6: (0, 13, 3, 9, 6, 20, 32, 7, 23, 7, 9, 0)
s = 7: (0, 18, 6, 8, 5, 11, 35, 5, 13, 7, 16, 0)
s = 8: (0, 12, 4, 15, 7, 13, 23, 9, 18, 7, 7, 0)
s = 9: (0, 17, 5, 14, 7, 19, 29, 10, 32, 5, 12, 0)
s = 10: (0, 11, 3, 12, 6, 9, 35, 5, 25, 6, 14, 0)
s = 11: (0, 19, 6, 11, 5, 25, 42, 6, 23, 7, 7, 0)
s = 12: (0, 14, 7, 13, 4, 14, 60, 6, 11, 6, 16, 0)
s = 13: (0, 26, 5, 8, 5, 23, 26, 7, 18, 6, 8, 0)
s = 14: (0, 23, 5, 12, 5, 18, 42, 7, 26, 6, 11, 0)
s = 15: (0, 11, 4, 18, 5, 15, 33, 8, 13, 6, 15, 0)
s = 16: (0, 17, 4, 19, 6, 25, 45, 5, 27, 5, 16, 0)
s = 17: (0, 24, 5, 10, 4, 23, 61, 4, 19, 9, 14, 0)
s = 18: (0, 22, 5, 19, 6, 15, 44, 5, 24, 7, 8, 0)
s = 19: (0, 24, 3, 15, 4, 21, 36, 4, 25, 8, 9, 0)
s = 20: (0, 14, 5, 10, 4, 13, 38, 5, 12, 6, 11, 0)
s = 21: (0, 17, 3, 12, 4, 27, 36, 5, 19, 7, 14, 0)
s = 22: (0, 26, 5, 13, 4, 14, 37, 10, 23, 8, 12, 0)
s = 23: (0, 13, 7, 11, 4, 17, 35, 5, 18, 11, 9, 0)
s = 24: (0, 12, 5, 16, 4, 20, 30, 8, 25, 8, 8, 0)
s = 25: (0, 13, 3, 11, 4, 17, 45, 5, 20, 7, 14, 0)
s = 26: (0, 18, 5, 10, 4, 22, 40, 7, 14, 5, 15, 0)
s = 27: (0, 24, 5, 14, 4, 19, 32, 4, 19, 6, 18, 0)
s = 28: (0, 25, 5, 12, 5, 11, 29, 6, 28, 6, 11, 0)
s = 29: (0, 17, 3, 11, 6, 14, 46, 7, 26, 6, 9, 0)
s = 30: (0, 19, 6, 11, 6, 11, 34, 7, 15, 7, 12, 0)
s = 31: (0, 24, 4, 21, 7, 15, 46, 7, 13, 10, 20, 0)
s = 32: (0, 21, 5, 15, 4, 10, 30, 9, 24, 9, 8, 0)
s = 33: (0, 11, 6, 13, 5, 16, 48, 10, 20, 7, 9, 0)
s = 34: (0, 15, 5, 8, 9, 14, 51, 5, 30, 10, 16, 0)
s = 35: (0, 24, 4, 10, 5, 17, 46, 8, 24, 8, 10, 0)
s = 36: (0, 21, 3, 12, 6, 21, 24, 7, 24, 8, 18, 0)
s = 37: (0, 16, 4, 7, 5, 11, 34, 5, 17, 7, 11, 0)
s = 38: (0, 15, 3, 18, 5, 12, 22, 4, 14, 8, 7, 0)
s = 39: (0, 13, 4, 11, 5, 11, 45, 8, 18, 5, 12, 0)
s = 40: (0, 22, 3, 12, 4, 19, 28, 6, 11, 10, 8, 0)
s = 41: (0, 14, 7, 8, 5, 19, 26, 7, 32, 11, 8, 0)
s = 42: (0, 12, 4, 10, 6, 16, 22, 5, 14, 6, 11, 0)
s = 43: (0, 13, 5, 11, 5, 11, 37, 9, 23, 12, 9, 0)
s = 44: (0, 33, 3, 14, 5, 13, 30, 7, 13, 8, 9, 0)
s = 45: (0, 17, 3, 18, 4, 18, 22, 6, 29, 5, 11, 0)
s = 46: (0, 24, 5, 14, 4, 19, 32, 5, 22, 4, 17, 0)
s = 47: (0, 26, 4, 14, 5, 15, 51, 6, 15, 8, 8, 0)
s = 48: (0, 25, 4, 19, 5, 16, 50, 7, 24, 5, 11, 0)
s = 49: (0, 17, 4, 10, 6, 11, 49, 6, 32, 5, 13, 0)
s = 50: (0, 12, 6, 11, 4, 14, 41, 5, 11, 5, 10, 0)
s = 51: (0, 11, 3, 17, 4, 20, 42, 6, 14, 8, 16, 0)
s = 52: (0, 22, 3, 13, 6, 14, 59, 7, 21, 8, 13, 0)
s = 53: (0, 20, 4, 14, 5, 16, 51, 8, 16, 6, 19, 0)
s = 54: (0, 20, 6, 11, 6, 16, 63, 10, 20, 5, 15, 0)
s = 55: (0, 11, 4, 10, 5, 12, 30, 10, 17, 9, 13, 0)
s = 56: (0, 14, 4, 9, 7, 21, 36, 5, 13, 7, 8, 0)
s = 57: (0, 14, 8, 8, 5, 17, 32, 8, 22, 8, 12, 0)
s = 58: (0, 22, 4, 17, 6, 15, 28, 6, 30, 8, 13, 0)
s = 59: (0, 22, 3, 13, 6, 26, 33, 5, 24, 6, 18, 0)
s = 60: (0, 14, 6, 11, 4, 18, 26, 6, 25, 6, 15, 0)
s = 61: (0, 25, 6, 10, 4, 17, 29, 5, 21, 6, 21, 0)
s = 62: (0, 22, 4, 11, 8, 14, 30, 6, 15, 5, 22, 0)
s = 63: (0, 22, 3, 12, 4, 18, 46, 4, 17, 9, 13, 0)
s = 64: (0, 18, 5, 12, 7, 20, 24, 7, 16, 9, 9, 0)
s = 65: (0, 16, 6, 11, 7, 18, 43, 7, 19, 5, 12, 0)
s = 66: (0, 24, 3, 16, 5, 25, 36, 5, 28, 6, 9, 0)
s = 67: (0, 14, 4, 12, 7, 10, 31, 6, 16, 9, 14, 0)
s = 68: (0, 23, 5, 14, 7, 10, 30, 7, 15, 6, 15, 0)
s = 69: (0, 11, 7, 10, 5, 20, 58, 9, 19, 5, 8, 0)
s = 70: (0, 13, 4, 13, 5, 17, 60, 6, 18, 7, 9, 0)
s = 71: (0, 16, 5, 8, 4, 18, 57, 6, 23, 6, 10, 0)
s = 72: (0, 19, 6, 14, 7, 15, 43, 4, 19, 8, 11, 0)
s = 73: (0, 16, 6, 12, 7, 13, 27, 7, 12, 8, 8, 0)
s = 74: (0, 17, 5, 8, 4, 14, 42, 6, 19, 7, 11, 0)
s = 75: (0, 24, 5, 13, 4, 19, 58, 7, 17, 6, 17, 0)
s = 76: (0, 16, 6, 11, 6, 15, 26, 9, 17, 8, 19, 0)
s = 77: (0, 17, 4, 13, 9, 17, 26, 6, 22, 7, 13, 0)
s = 78: (0, 19, 7, 13, 5, 18, 34, 6, 24, 5, 10, 0)
s = 79: (0, 22, 4, 12, 4, 22, 24, 4, 13, 5, 18, 0)
s = 80: (0, 14, 5, 10, 5, 17, 46, 5, 24, 6, 12, 0)
s = 81: (0, 15, 6, 13, 4, 20, 38, 5, 30, 5, 12, 0)
s = 82: (0, 23, 6, 11, 4, 17, 30, 7, 29, 4, 11, 0)
s = 83: (0, 11, 5, 10, 4, 12, 39, 5, 12, 5, 10, 0)
s = 84: (0, 18, 4, 10, 4, 19, 25, 5, 16, 5, 9, 0)
s = 85: (0, 18, 5, 10, 9, 20, 48, 8, 19, 7, 8, 0)
s = 86: (0, 27, 4, 9, 5, 22, 42, 4, 22, 5, 10, 0)
s = 87: (0, 12, 4, 8, 5, 19, 24, 7, 29, 7, 12, 0)
s = 88: (0, 25, 5, 11, 4, 18, 32, 4, 17, 4, 10, 0)
s = 89: (0, 25, 3, 21, 7, 20, 22, 8, 21, 10, 9, 0)
s = 90: (0, 14, 3, 18, 4, 21, 30, 8, 26, 5, 14, 0)
s = 91: (0, 19, 6, 11, 4, 23, 28, 6, 15, 9, 18, 0)
s = 92: (0, 19, 6, 18, 9, 14, 22, 6, 12, 10, 12, 0)
s = 93: (0, 18, 3, 14, 4, 13, 59, 8, 17, 7, 14, 0)
s = 94: (0, 25, 4, 10, 3, 13, 36, 9, 24, 7, 14, 0)
s = 95: (0, 14, 4, 10, 6, 10, 49, 5, 23, 8, 9, 0)
s = 96: (0, 13, 5, 13, 6, 19, 57, 4, 15, 9, 11, 0)
s = 97: (0, 17, 4, 12, 5, 13, 24, 5, 24, 7, 13, 0)
s = 98: (0, 25, 4, 11, 4, 11, 32, 7, 30, 10, 10, 0)
s = 99: (0, 14, 3, 10, 6, 18, 25, 7, 19, 6, 12, 0)
s = 100: (0, 16, 7, 12, 4, 16, 30, 5, 15, 6, 15, 0)
s = 101: (0, 19, 3, 11, 7, 16, 50, 7, 14, 9, 15, 0)
s = 102: (0, 13, 3, 12, 8, 15, 42, 6, 30, 6, 9, 0)
s = 103: (0, 25, 4, 15, 6, 11, 32, 7, 14, 4, 11, 0)
s = 104: (0, 24, 4, 12, 4, 11, 44, 6, 18, 7, 16, 0)
s = 105: (0, 14, 5, 14, 6, 17, 25, 10, 15, 6, 11, 0)
s = 106: (0, 24, 6, 9, 6, 20, 34, 7, 25, 6, 15, 0)
s = 107: (0, 24, 5, 10, 5, 12, 38, 6, 11, 9, 16, 0)
s = 108: (0, 20, 6, 9, 5, 21, 33, 8, 22, 9, 7, 0)
s = 109: (0, 21, 3, 10, 6, 10, 24, 5, 13, 7, 14, 0)
s = 110: (0, 23, 4, 16, 3, 14, 21, 10, 24, 6, 11, 0)
s = 111: (0, 18, 6, 19, 5, 18, 45, 8, 21, 8, 11, 0)
s = 112: (0, 24, 4, 8, 5, 14, 36, 6, 23, 9, 16, 0)
s = 113: (0, 19, 3, 15, 6, 10, 21, 7, 16, 6, 12, 0)
s = 114: (0, 13, 4, 10, 6, 11, 25, 6, 14, 7, 10, 0)
s = 115: (0, 13, 5, 12, 4, 19, 46, 8, 24, 6, 17, 0)
s = 116: (0, 27, 5, 25, 8, 13, 33, 4, 21, 4, 12, 0)
s = 117: (0, 14, 4, 9, 5, 16, 31, 7, 26, 5, 8, 0)
s = 118: (0, 27, 3, 10, 6, 15, 54, 5, 28, 6, 13, 0)
s = 119: (0, 12, 4, 15, 5, 18, 50, 4, 17, 4, 12, 0)
s = 120: (0, 21, 4, 7, 5, 14, 31, 6, 28, 6, 20, 0)
s = 121: (0, 16, 3, 10, 6, 19, 59, 9, 16, 4, 9, 0)
s = 122: (0, 19, 4, 13, 4, 22, 26, 7, 14, 8, 8, 0)
s = 123: (0, 26, 6, 14, 7, 19, 35, 6, 16, 6, 15, 0)
s = 124: (0, 20, 5, 9, 6, 15, 30, 6, 31, 6, 14, 0)
s = 125: (0, 13, 4, 17, 5, 13, 37, 6, 14, 8, 10, 0)
s = 126: (0, 16, 3, 16, 5, 19, 27, 5, 37, 5, 8, 0)
s = 127: (0, 19, 3, 16, 5, 17, 28, 7, 14, 5, 11, 0)
s = 128: (0, 23, 4, 12, 4, 23, 28, 9, 20, 6, 7, 0)
s = 129: (0, 25, 4, 15, 5, 13, 34, 5, 14, 10, 9, 0)
s = 130: (0, 20, 4, 8, 5, 16, 27, 6, 27, 8, 8, 0)
s = 131: (0, 21, 5, 8, 4, 21, 23, 8, 15, 8, 15, 0)
s = 132: (0, 15, 6, 19, 6, 13, 25, 6, 25, 6, 16, 0)
s = 133: (0, 18, 5, 11, 5, 21, 35, 8, 26, 4, 10, 0)
s = 134: (0, 24, 5, 9, 4, 17, 29, 4, 29, 8, 13, 0)
s = 135: (0, 19, 6, 13, 5, 13, 28, 4, 27, 5, 14, 0)
s = 136: (0, 16, 5, 12, 3, 19, 36, 10, 13, 9, 16, 0)
s = 137: (0, 22, 5, 15, 7, 14, 29, 6, 16, 5, 16, 0)
s = 138: (0, 14, 5, 21, 4, 18, 44, 9, 18, 7, 11, 0)
s = 139: (0, 12, 4, 19, 5, 12, 30, 5, 24, 8, 10, 0)
s = 140: (0, 31, 5, 10, 4, 23, 26, 4, 18, 6, 19, 0)
s = 141: (0, 15, 6, 14, 9, 9, 41, 4, 21, 6, 15, 0)
s = 142: (0, 26, 3, 11, 6, 14, 23, 5, 17, 5, 14, 0)
s = 143: (0, 12, 5, 9, 5, 16, 33, 5, 28, 4, 7, 0)
s = 144: (0, 16, 3, 16, 7, 16, 44, 8, 24, 7, 17, 0)
s = 145: (0, 17, 3, 13, 6, 10, 34, 7, 18, 6, 14, 0)
s = 146: (0, 12, 6, 9, 4, 17, 28, 7, 27, 7, 13, 0)
s = 147: (0, 17, 3, 11, 6, 21, 19, 8, 15, 4, 17, 0)
s = 148: (0, 29, 5, 15, 5, 12, 58, 9, 27, 9, 15, 0)
s = 149: (0, 12, 4, 19, 3, 9, 42, 9, 22, 5, 17, 0)
s = 150: (0, 22, 3, 12, 4, 12, 46, 5, 29, 5, 16, 0)
s = 151: (0, 24, 4, 20, 6, 17, 53, 11, 17, 7, 18, 0)
s = 152: (0, 22, 4, 18, 8, 19, 40, 4, 15, 5, 18, 0)
s = 153: (0, 18, 5, 16, 6, 14, 27, 7, 26, 6, 10, 0)
s = 154: (0, 14, 3, 11, 4, 18, 26, 6, 15, 10, 11, 0)
s = 155: (0, 27, 4, 10, 4, 18, 23, 7, 18, 4, 12, 0)
s = 156: (0, 26, 4, 13, 7, 12, 30, 5, 28, 5, 12, 0)
s = 157: (0, 10, 5, 20, 4, 16, 38, 6, 27, 7, 13, 0)
s = 158: (0, 19, 5, 11, 4, 18, 25, 7, 17, 5, 13, 0)
s = 159: (0, 26, 5, 12, 6, 17, 39, 5, 20, 9, 15, 0)
s = 160: (0, 20, 6, 10, 8, 10, 42, 6, 15, 6, 10, 0)
s = 161: (0, 13, 4, 12, 7, 12, 37, 9, 18, 7, 11, 0)
s = 162: (0, 36, 3, 11, 4, 17, 33, 6, 23, 6, 13, 0)
s = 163: (0, 24, 6, 9, 9, 23, 41, 7, 24, 6, 14, 0)
s = 164: (0, 18, 3, 8, 4, 16, 32, 5, 16, 6, 17, 0)
s = 165: (0, 26, 4, 10, 4, 23, 30, 8, 21, 5, 16, 0)
s = 166: (0, 27, 5, 12, 6, 19, 34, 6, 35, 5, 11, 0)
s = 167: (0, 26, 5, 13, 4, 15, 48, 7, 18, 5, 11, 0)
s = 168: (0, 15, 6, 13, 7, 15, 35, 4, 27, 5, 16, 0)
s = 169: (0, 14, 5, 15, 9, 13, 41, 4, 12, 5, 7, 0)
s = 170: (0, 17, 3, 15, 5, 16, 37, 6, 14, 7, 9, 0)
s = 171: (0, 20, 6, 11, 5, 18, 28, 7, 23, 7, 10, 0)
s = 172: (0, 25, 5, 7, 7, 16, 45, 6, 19, 4, 20, 0)
s = 173: (0, 21, 3, 13, 3, 18, 36, 5, 17, 6, 17, 0)
s = 174: (0, 15, 7, 11, 6, 11, 50, 5, 17, 8, 9, 0)
s = 175: (0, 14, 6, 8, 7, 15, 49, 8, 24, 4, 13, 0)
s = 176: (0, 21, 5, 9, 5, 11, 25, 6, 21, 7, 11, 0)
s = 177: (0, 20, 4, 8, 4, 10, 21, 6, 21, 5, 8, 0)
s = 178: (0, 26, 3, 14, 7, 11, 20, 8, 14, 7, 15, 0)
s = 179: (0, 19, 4, 13, 6, 20, 45, 9, 22, 8, 14, 0)
s = 180: (0, 17, 4, 12, 5, 14, 41, 9, 15, 8, 17, 0)
s = 181: (0, 12, 4, 18, 6, 16, 32, 6, 21, 8, 9, 0)
s = 182: (0, 17, 4, 12, 6, 16, 43, 8, 17, 6, 17, 0)
s = 183: (0, 27, 3, 14, 5, 12, 42, 8, 29, 6, 16, 0)
s = 184: (0, 17, 5, 12, 5, 9, 41, 5, 18, 4, 14, 0)
s = 185: (0, 12, 3, 9, 5, 12, 23, 9, 28, 6, 14, 0)
s = 186: (0, 18, 6, 7, 4, 19, 25, 4, 24, 10, 12, 0)
s = 187: (0, 17, 4, 9, 5, 15, 42, 5, 19, 7, 18, 0)
s = 188: (0, 28, 4, 12, 5, 11, 33, 6, 35, 9, 14, 0)
s = 189: (0, 14, 3, 15, 6, 18, 31, 7, 18, 5, 14, 0)
s = 190: (0, 13, 5, 16, 8, 20, 50, 5, 17, 6, 11, 0)
s = 191: (0, 14, 5, 14, 4, 15, 34, 9, 27, 7, 13, 0)
s = 192: (0, 17, 5, 18, 7, 10, 50, 4, 23, 7, 12, 0)
s = 193: (0, 12, 3, 13, 7, 18, 31, 9, 18, 8, 13, 0)
s = 194: (0, 20, 7, 12, 8, 16, 34, 6, 22, 6, 10, 0)
s = 195: (0, 20, 6, 12, 4, 9, 34, 9, 21, 5, 10, 0)
s = 196: (0, 12, 7, 15, 5, 20, 31, 6, 30, 9, 10, 0)
s = 197: (0, 14, 3, 14, 4, 16, 38, 5, 12, 5, 18, 0)
s = 198: (0, 15, 4, 18, 6, 10, 27, 8, 18, 6, 15, 0)
s = 199: (0, 11, 6, 8, 5, 15, 25, 5, 34, 5, 9, 0)
s = 200: (0, 18, 4, 15, 7, 10, 25, 7, 23, 7, 14, 0)
------------------------------------------------------------------------
RESOURCE k = 2
s = 1: (0, 0, 4, 0, 0, 0, 0, 9, 0, 9, 22, 0)
s = 2: (0, 0, 7, 0, 0, 0, 0, 11, 0, 9, 31, 0)
s = 3: (0, 0, 4, 0, 0, 0, 0, 7, 0, 9, 35, 0)
s = 4: (0, 0, 5, 0, 0, 0, 0, 7, 0, 9, 15, 0)
s = 5: (0, 0, 6, 0, 0, 0, 0, 8, 0, 11, 44, 0)
s = 6: (0, 0, 3, 0, 0, 0, 0, 9, 0, 9, 17, 0)
s = 7: (0, 0, 6, 0, 0, 0, 0, 7, 0, 8, 31, 0)
s = 8: (0, 0, 4, 0, 0, 0, 0, 11, 0, 8, 14, 0)
s = 9: (0, 0, 5, 0, 0, 0, 0, 13, 0, 6, 23, 0)
s = 10: (0, 0, 3, 0, 0, 0, 0, 7, 0, 7, 28, 0)
s = 11: (0, 0, 6, 0, 0, 0, 0, 8, 0, 8, 14, 0)
s = 12: (0, 0, 7, 0, 0, 0, 0, 8, 0, 7, 32, 0)
s = 13: (0, 0, 5, 0, 0, 0, 0, 9, 0, 7, 15, 0)
s = 14: (0, 0, 5, 0, 0, 0, 0, 9, 0, 7, 22, 0)
s = 15: (0, 0, 4, 0, 0, 0, 0, 11, 0, 7, 29, 0)
s = 16: (0, 0, 4, 0, 0, 0, 0, 7, 0, 6, 31, 0)
s = 17: (0, 0, 5, 0, 0, 0, 0, 5, 0, 11, 27, 0)
s = 18: (0, 0, 5, 0, 0, 0, 0, 7, 0, 8, 16, 0)
s = 19: (0, 0, 3, 0, 0, 0, 0, 5, 0, 9, 18, 0)
s = 20: (0, 0, 5, 0, 0, 0, 0, 6, 0, 7, 21, 0)
s = 21: (0, 0, 3, 0, 0, 0, 0, 7, 0, 8, 28, 0)
s = 22: (0, 0, 5, 0, 0, 0, 0, 13, 0, 9, 23, 0)
s = 23: (0, 0, 7, 0, 0, 0, 0, 6, 0, 13, 17, 0)
s = 24: (0, 0, 5, 0, 0, 0, 0, 11, 0, 9, 16, 0)
s = 25: (0, 0, 3, 0, 0, 0, 0, 7, 0, 8, 27, 0)
s = 26: (0, 0, 5, 0, 0, 0, 0, 10, 0, 5, 29, 0)
s = 27: (0, 0, 5, 0, 0, 0, 0, 6, 0, 7, 35, 0)
s = 28: (0, 0, 5, 0, 0, 0, 0, 7, 0, 7, 21, 0)
s = 29: (0, 0, 3, 0, 0, 0, 0, 9, 0, 7, 17, 0)
s = 30: (0, 0, 6, 0, 0, 0, 0, 10, 0, 8, 24, 0)
s = 31: (0, 0, 4, 0, 0, 0, 0, 9, 0, 12, 39, 0)
s = 32: (0, 0, 5, 0, 0, 0, 0, 12, 0, 11, 15, 0)
s = 33: (0, 0, 6, 0, 0, 0, 0, 13, 0, 8, 18, 0)
s = 34: (0, 0, 5, 0, 0, 0, 0, 7, 0, 11, 32, 0)
s = 35: (0, 0, 4, 0, 0, 0, 0, 10, 0, 9, 19, 0)
s = 36: (0, 0, 3, 0, 0, 0, 0, 10, 0, 10, 35, 0)
s = 37: (0, 0, 4, 0, 0, 0, 0, 7, 0, 8, 22, 0)
s = 38: (0, 0, 3, 0, 0, 0, 0, 6, 0, 9, 13, 0)
s = 39: (0, 0, 4, 0, 0, 0, 0, 11, 0, 6, 24, 0)
s = 40: (0, 0, 3, 0, 0, 0, 0, 8, 0, 12, 16, 0)
s = 41: (0, 0, 7, 0, 0, 0, 0, 9, 0, 13, 15, 0)
s = 42: (0, 0, 4, 0, 0, 0, 0, 7, 0, 7, 21, 0)
s = 43: (0, 0, 5, 0, 0, 0, 0, 11, 0, 14, 18, 0)
s = 44: (0, 0, 3, 0, 0, 0, 0, 10, 0, 9, 18, 0)
s = 45: (0, 0, 3, 0, 0, 0, 0, 8, 0, 6, 21, 0)
s = 46: (0, 0, 5, 0, 0, 0, 0, 7, 0, 5, 33, 0)
s = 47: (0, 0, 4, 0, 0, 0, 0, 7, 0, 9, 15, 0)
s = 48: (0, 0, 4, 0, 0, 0, 0, 9, 0, 6, 21, 0)
s = 49: (0, 0, 4, 0, 0, 0, 0, 7, 0, 6, 26, 0)
s = 50: (0, 0, 6, 0, 0, 0, 0, 7, 0, 6, 20, 0)
s = 51: (0, 0, 3, 0, 0, 0, 0, 7, 0, 9, 32, 0)
s = 52: (0, 0, 3, 0, 0, 0, 0, 9, 0, 9, 25, 0)
s = 53: (0, 0, 4, 0, 0, 0, 0, 11, 0, 6, 37, 0)
s = 54: (0, 0, 6, 0, 0, 0, 0, 13, 0, 6, 30, 0)
s = 55: (0, 0, 4, 0, 0, 0, 0, 13, 0, 10, 25, 0)
s = 56: (0, 0, 4, 0, 0, 0, 0, 6, 0, 8, 16, 0)
s = 57: (0, 0, 8, 0, 0, 0, 0, 10, 0, 9, 23, 0)
s = 58: (0, 0, 4, 0, 0, 0, 0, 7, 0, 10, 25, 0)
s = 59: (0, 0, 3, 0, 0, 0, 0, 7, 0, 6, 36, 0)
s = 60: (0, 0, 6, 0, 0, 0, 0, 8, 0, 7, 29, 0)
s = 61: (0, 0, 6, 0, 0, 0, 0, 7, 0, 7, 42, 0)
s = 62: (0, 0, 4, 0, 0, 0, 0, 8, 0, 6, 43, 0)
s = 63: (0, 0, 3, 0, 0, 0, 0, 6, 0, 10, 26, 0)
s = 64: (0, 0, 5, 0, 0, 0, 0, 9, 0, 11, 17, 0)
s = 65: (0, 0, 6, 0, 0, 0, 0, 9, 0, 5, 24, 0)
s = 66: (0, 0, 3, 0, 0, 0, 0, 7, 0, 7, 18, 0)
s = 67: (0, 0, 4, 0, 0, 0, 0, 8, 0, 10, 28, 0)
s = 68: (0, 0, 5, 0, 0, 0, 0, 9, 0, 7, 30, 0)
s = 69: (0, 0, 7, 0, 0, 0, 0, 12, 0, 6, 16, 0)
s = 70: (0, 0, 4, 0, 0, 0, 0, 8, 0, 8, 18, 0)
s = 71: (0, 0, 5, 0, 0, 0, 0, 7, 0, 7, 20, 0)
s = 72: (0, 0, 6, 0, 0, 0, 0, 5, 0, 10, 21, 0)
s = 73: (0, 0, 6, 0, 0, 0, 0, 9, 0, 9, 16, 0)
s = 74: (0, 0, 5, 0, 0, 0, 0, 8, 0, 8, 22, 0)
s = 75: (0, 0, 5, 0, 0, 0, 0, 9, 0, 6, 34, 0)
s = 76: (0, 0, 6, 0, 0, 0, 0, 12, 0, 9, 37, 0)
s = 77: (0, 0, 4, 0, 0, 0, 0, 7, 0, 8, 26, 0)
s = 78: (0, 0, 7, 0, 0, 0, 0, 7, 0, 6, 19, 0)
s = 79: (0, 0, 4, 0, 0, 0, 0, 5, 0, 6, 35, 0)
s = 80: (0, 0, 5, 0, 0, 0, 0, 7, 0, 7, 23, 0)
s = 81: (0, 0, 6, 0, 0, 0, 0, 6, 0, 6, 23, 0)
s = 82: (0, 0, 6, 0, 0, 0, 0, 9, 0, 5, 22, 0)
s = 83: (0, 0, 5, 0, 0, 0, 0, 7, 0, 6, 20, 0)
s = 84: (0, 0, 4, 0, 0, 0, 0, 7, 0, 6, 17, 0)
s = 85: (0, 0, 5, 0, 0, 0, 0, 11, 0, 8, 16, 0)
s = 86: (0, 0, 4, 0, 0, 0, 0, 6, 0, 6, 19, 0)
s = 87: (0, 0, 4, 0, 0, 0, 0, 9, 0, 9, 23, 0)
s = 88: (0, 0, 5, 0, 0, 0, 0, 6, 0, 5, 19, 0)
s = 89: (0, 0, 3, 0, 0, 0, 0, 10, 0, 11, 18, 0)
s = 90: (0, 0, 3, 0, 0, 0, 0, 11, 0, 6, 27, 0)
s = 91: (0, 0, 6, 0, 0, 0, 0, 8, 0, 10, 36, 0)
s = 92: (0, 0, 6, 0, 0, 0, 0, 7, 0, 12, 23, 0)
s = 93: (0, 0, 3, 0, 0, 0, 0, 10, 0, 8, 27, 0)
s = 94: (0, 0, 4, 0, 0, 0, 0, 11, 0, 8, 28, 0)
s = 95: (0, 0, 4, 0, 0, 0, 0, 6, 0, 9, 17, 0)
s = 96: (0, 0, 5, 0, 0, 0, 0, 5, 0, 10, 21, 0)
s = 97: (0, 0, 4, 0, 0, 0, 0, 6, 0, 8, 26, 0)
s = 98: (0, 0, 4, 0, 0, 0, 0, 9, 0, 12, 20, 0)
s = 99: (0, 0, 3, 0, 0, 0, 0, 9, 0, 7, 23, 0)
s = 100: (0, 0, 7, 0, 0, 0, 0, 7, 0, 7, 30, 0)
s = 101: (0, 0, 3, 0, 0, 0, 0, 9, 0, 11, 29, 0)
s = 102: (0, 0, 3, 0, 0, 0, 0, 8, 0, 7, 17, 0)
s = 103: (0, 0, 4, 0, 0, 0, 0, 9, 0, 5, 22, 0)
s = 104: (0, 0, 4, 0, 0, 0, 0, 8, 0, 8, 31, 0)
s = 105: (0, 0, 5, 0, 0, 0, 0, 13, 0, 7, 21, 0)
s = 106: (0, 0, 6, 0, 0, 0, 0, 9, 0, 7, 29, 0)
s = 107: (0, 0, 5, 0, 0, 0, 0, 8, 0, 10, 31, 0)
s = 108: (0, 0, 6, 0, 0, 0, 0, 11, 0, 10, 14, 0)
s = 109: (0, 0, 3, 0, 0, 0, 0, 6, 0, 8, 27, 0)
s = 110: (0, 0, 4, 0, 0, 0, 0, 13, 0, 7, 22, 0)
s = 111: (0, 0, 6, 0, 0, 0, 0, 10, 0, 9, 21, 0)
s = 112: (0, 0, 4, 0, 0, 0, 0, 7, 0, 10, 32, 0)
s = 113: (0, 0, 3, 0, 0, 0, 0, 10, 0, 7, 24, 0)
s = 114: (0, 0, 4, 0, 0, 0, 0, 8, 0, 8, 20, 0)
s = 115: (0, 0, 5, 0, 0, 0, 0, 11, 0, 7, 33, 0)
s = 116: (0, 0, 5, 0, 0, 0, 0, 6, 0, 5, 24, 0)
s = 117: (0, 0, 4, 0, 0, 0, 0, 10, 0, 6, 16, 0)
s = 118: (0, 0, 3, 0, 0, 0, 0, 6, 0, 7, 25, 0)
s = 119: (0, 0, 4, 0, 0, 0, 0, 5, 0, 5, 23, 0)
s = 120: (0, 0, 4, 0, 0, 0, 0, 8, 0, 7, 39, 0)
s = 121: (0, 0, 3, 0, 0, 0, 0, 12, 0, 5, 17, 0)
s = 122: (0, 0, 4, 0, 0, 0, 0, 9, 0, 9, 15, 0)
s = 123: (0, 0, 6, 0, 0, 0, 0, 8, 0, 7, 30, 0)
s = 124: (0, 0, 5, 0, 0, 0, 0, 8, 0, 6, 27, 0)
s = 125: (0, 0, 4, 0, 0, 0, 0, 8, 0, 9, 20, 0)
s = 126: (0, 0, 3, 0, 0, 0, 0, 7, 0, 6, 16, 0)
s = 127: (0, 0, 3, 0, 0, 0, 0, 9, 0, 6, 21, 0)
s = 128: (0, 0, 4, 0, 0, 0, 0, 12, 0, 7, 14, 0)
s = 129: (0, 0, 4, 0, 0, 0, 0, 7, 0, 11, 18, 0)
s = 130: (0, 0, 4, 0, 0, 0, 0, 8, 0, 10, 15, 0)
s = 131: (0, 0, 5, 0, 0, 0, 0, 11, 0, 9, 29, 0)
s = 132: (0, 0, 6, 0, 0, 0, 0, 8, 0, 7, 32, 0)
s = 133: (0, 0, 5, 0, 0, 0, 0, 10, 0, 5, 19, 0)
s = 134: (0, 0, 5, 0, 0, 0, 0, 6, 0, 9, 26, 0)
s = 135: (0, 0, 6, 0, 0, 0, 0, 6, 0, 6, 28, 0)
s = 136: (0, 0, 5, 0, 0, 0, 0, 13, 0, 10, 32, 0)
s = 137: (0, 0, 5, 0, 0, 0, 0, 8, 0, 5, 31, 0)
s = 138: (0, 0, 5, 0, 0, 0, 0, 12, 0, 9, 21, 0)
s = 139: (0, 0, 4, 0, 0, 0, 0, 7, 0, 9, 19, 0)
s = 140: (0, 0, 5, 0, 0, 0, 0, 5, 0, 6, 37, 0)
s = 141: (0, 0, 6, 0, 0, 0, 0, 5, 0, 7, 30, 0)
s = 142: (0, 0, 3, 0, 0, 0, 0, 6, 0, 5, 27, 0)
s = 143: (0, 0, 5, 0, 0, 0, 0, 6, 0, 5, 14, 0)
s = 144: (0, 0, 3, 0, 0, 0, 0, 10, 0, 8, 33, 0)
s = 145: (0, 0, 3, 0, 0, 0, 0, 9, 0, 7, 27, 0)
s = 146: (0, 0, 6, 0, 0, 0, 0, 9, 0, 9, 25, 0)
s = 147: (0, 0, 3, 0, 0, 0, 0, 11, 0, 5, 33, 0)
s = 148: (0, 0, 5, 0, 0, 0, 0, 12, 0, 10, 29, 0)
s = 149: (0, 0, 4, 0, 0, 0, 0, 12, 0, 6, 34, 0)
s = 150: (0, 0, 3, 0, 0, 0, 0, 7, 0, 6, 31, 0)
s = 151: (0, 0, 4, 0, 0, 0, 0, 14, 0, 8, 35, 0)
s = 152: (0, 0, 4, 0, 0, 0, 0, 6, 0, 5, 35, 0)
s = 153: (0, 0, 5, 0, 0, 0, 0, 9, 0, 7, 20, 0)
s = 154: (0, 0, 3, 0, 0, 0, 0, 8, 0, 11, 22, 0)
s = 155: (0, 0, 4, 0, 0, 0, 0, 10, 0, 5, 23, 0)
s = 156: (0, 0, 4, 0, 0, 0, 0, 6, 0, 6, 24, 0)
s = 157: (0, 0, 5, 0, 0, 0, 0, 7, 0, 8, 25, 0)
s = 158: (0, 0, 5, 0, 0, 0, 0, 9, 0, 5, 26, 0)
s = 159: (0, 0, 5, 0, 0, 0, 0, 6, 0, 11, 29, 0)
s = 160: (0, 0, 6, 0, 0, 0, 0, 8, 0, 6, 19, 0)
s = 161: (0, 0, 4, 0, 0, 0, 0, 11, 0, 8, 21, 0)
s = 162: (0, 0, 3, 0, 0, 0, 0, 8, 0, 7, 25, 0)
s = 163: (0, 0, 6, 0, 0, 0, 0, 9, 0, 7, 27, 0)
s = 164: (0, 0, 3, 0, 0, 0, 0, 7, 0, 7, 33, 0)
s = 165: (0, 0, 4, 0, 0, 0, 0, 10, 0, 6, 31, 0)
s = 166: (0, 0, 5, 0, 0, 0, 0, 7, 0, 6, 21, 0)
s = 167: (0, 0, 5, 0, 0, 0, 0, 10, 0, 6, 22, 0)
s = 168: (0, 0, 6, 0, 0, 0, 0, 6, 0, 5, 32, 0)
s = 169: (0, 0, 5, 0, 0, 0, 0, 6, 0, 5, 13, 0)
s = 170: (0, 0, 3, 0, 0, 0, 0, 8, 0, 9, 18, 0)
s = 171: (0, 0, 6, 0, 0, 0, 0, 10, 0, 8, 19, 0)
s = 172: (0, 0, 5, 0, 0, 0, 0, 8, 0, 5, 39, 0)
s = 173: (0, 0, 3, 0, 0, 0, 0, 7, 0, 7, 33, 0)
s = 174: (0, 0, 7, 0, 0, 0, 0, 7, 0, 10, 18, 0)
s = 175: (0, 0, 6, 0, 0, 0, 0, 11, 0, 4, 26, 0)
s = 176: (0, 0, 5, 0, 0, 0, 0, 8, 0, 8, 22, 0)
s = 177: (0, 0, 4, 0, 0, 0, 0, 8, 0, 6, 16, 0)
s = 178: (0, 0, 3, 0, 0, 0, 0, 10, 0, 8, 30, 0)
s = 179: (0, 0, 4, 0, 0, 0, 0, 11, 0, 9, 28, 0)
s = 180: (0, 0, 4, 0, 0, 0, 0, 12, 0, 9, 34, 0)
s = 181: (0, 0, 4, 0, 0, 0, 0, 8, 0, 9, 18, 0)
s = 182: (0, 0, 4, 0, 0, 0, 0, 11, 0, 7, 33, 0)
s = 183: (0, 0, 3, 0, 0, 0, 0, 11, 0, 7, 31, 0)
s = 184: (0, 0, 5, 0, 0, 0, 0, 7, 0, 5, 28, 0)
s = 185: (0, 0, 3, 0, 0, 0, 0, 11, 0, 7, 27, 0)
s = 186: (0, 0, 6, 0, 0, 0, 0, 6, 0, 12, 24, 0)
s = 187: (0, 0, 4, 0, 0, 0, 0, 6, 0, 8, 35, 0)
s = 188: (0, 0, 4, 0, 0, 0, 0, 8, 0, 10, 27, 0)
s = 189: (0, 0, 3, 0, 0, 0, 0, 9, 0, 5, 27, 0)
s = 190: (0, 0, 5, 0, 0, 0, 0, 7, 0, 7, 21, 0)
s = 191: (0, 0, 5, 0, 0, 0, 0, 11, 0, 8, 25, 0)
s = 192: (0, 0, 5, 0, 0, 0, 0, 5, 0, 8, 24, 0)
s = 193: (0, 0, 3, 0, 0, 0, 0, 12, 0, 9, 26, 0)
s = 194: (0, 0, 7, 0, 0, 0, 0, 8, 0, 7, 20, 0)
s = 195: (0, 0, 6, 0, 0, 0, 0, 12, 0, 5, 20, 0)
s = 196: (0, 0, 7, 0, 0, 0, 0, 8, 0, 11, 19, 0)
s = 197: (0, 0, 3, 0, 0, 0, 0, 7, 0, 6, 35, 0)
s = 198: (0, 0, 4, 0, 0, 0, 0, 10, 0, 7, 29, 0)
s = 199: (0, 0, 6, 0, 0, 0, 0, 6, 0, 6, 17, 0)
s = 200: (0, 0, 4, 0, 0, 0, 0, 9, 0, 8, 28, 0)
------------------------------------------------------------------------
RESOURCE k = 3
s = 1: (0, 22, 0, 19, 7, 12, 12, 0, 11, 0, 0, 0)
s = 2: (0, 17, 0, 12, 6, 13, 10, 0, 21, 0, 0, 0)
s = 3: (0, 33, 0, 26, 4, 16, 12, 0, 29, 0, 0, 0)
s = 4: (0, 29, 0, 19, 5, 13, 11, 0, 19, 0, 0, 0)
s = 5: (0, 16, 0, 15, 5, 10, 17, 0, 19, 0, 0, 0)
s = 6: (0, 15, 0, 14, 7, 16, 11, 0, 18, 0, 0, 0)
s = 7: (0, 21, 0, 11, 6, 9, 12, 0, 10, 0, 0, 0)
s = 8: (0, 14, 0, 22, 9, 10, 8, 0, 15, 0, 0, 0)
s = 9: (0, 19, 0, 20, 8, 15, 10, 0, 26, 0, 0, 0)
s = 10: (0, 13, 0, 17, 7, 7, 12, 0, 20, 0, 0, 0)
s = 11: (0, 23, 0, 17, 5, 20, 14, 0, 18, 0, 0, 0)
s = 12: (0, 16, 0, 20, 5, 12, 20, 0, 9, 0, 0, 0)
s = 13: (0, 30, 0, 12, 6, 19, 9, 0, 15, 0, 0, 0)
s = 14: (0, 26, 0, 18, 6, 15, 14, 0, 21, 0, 0, 0)
s = 15: (0, 13, 0, 27, 6, 12, 11, 0, 10, 0, 0, 0)
s = 16: (0, 19, 0, 28, 7, 20, 15, 0, 22, 0, 0, 0)
s = 17: (0, 28, 0, 15, 4, 19, 21, 0, 15, 0, 0, 0)
s = 18: (0, 26, 0, 28, 7, 12, 15, 0, 19, 0, 0, 0)
s = 19: (0, 28, 0, 23, 5, 17, 12, 0, 20, 0, 0, 0)
s = 20: (0, 16, 0, 14, 5, 10, 13, 0, 10, 0, 0, 0)
s = 21: (0, 20, 0, 18, 5, 22, 12, 0, 15, 0, 0, 0)
s = 22: (0, 30, 0, 19, 5, 11, 13, 0, 18, 0, 0, 0)
s = 23: (0, 15, 0, 16, 5, 14, 12, 0, 15, 0, 0, 0)
s = 24: (0, 13, 0, 24, 4, 16, 10, 0, 20, 0, 0, 0)
s = 25: (0, 16, 0, 16, 5, 14, 15, 0, 16, 0, 0, 0)
s = 26: (0, 21, 0, 15, 5, 17, 14, 0, 11, 0, 0, 0)
s = 27: (0, 28, 0, 20, 4, 15, 11, 0, 15, 0, 0, 0)
s = 28: (0, 29, 0, 17, 6, 9, 10, 0, 22, 0, 0, 0)
s = 29: (0, 19, 0, 16, 7, 11, 16, 0, 21, 0, 0, 0)
s = 30: (0, 22, 0, 16, 8, 9, 12, 0, 12, 0, 0, 0)
s = 31: (0, 27, 0, 31, 8, 12, 16, 0, 11, 0, 0, 0)
s = 32: (0, 25, 0, 22, 4, 8, 10, 0, 20, 0, 0, 0)
s = 33: (0, 13, 0, 19, 5, 13, 16, 0, 16, 0, 0, 0)
s = 34: (0, 18, 0, 11, 10, 11, 17, 0, 24, 0, 0, 0)
s = 35: (0, 28, 0, 15, 6, 14, 16, 0, 20, 0, 0, 0)
s = 36: (0, 25, 0, 18, 7, 17, 8, 0, 19, 0, 0, 0)
s = 37: (0, 18, 0, 10, 6, 9, 12, 0, 14, 0, 0, 0)
s = 38: (0, 18, 0, 26, 6, 10, 8, 0, 11, 0, 0, 0)
s = 39: (0, 15, 0, 17, 6, 9, 15, 0, 15, 0, 0, 0)
s = 40: (0, 25, 0, 18, 5, 15, 10, 0, 9, 0, 0, 0)
s = 41: (0, 16, 0, 11, 6, 15, 9, 0, 26, 0, 0, 0)
s = 42: (0, 14, 0, 14, 7, 13, 8, 0, 11, 0, 0, 0)
s = 43: (0, 15, 0, 16, 6, 9, 13, 0, 19, 0, 0, 0)
s = 44: (0, 38, 0, 20, 6, 11, 10, 0, 10, 0, 0, 0)
s = 45: (0, 19, 0, 26, 5, 14, 8, 0, 23, 0, 0, 0)
s = 46: (0, 28, 0, 20, 5, 15, 11, 0, 18, 0, 0, 0)
s = 47: (0, 30, 0, 21, 6, 12, 17, 0, 12, 0, 0, 0)
s = 48: (0, 29, 0, 28, 6, 13, 17, 0, 19, 0, 0, 0)
s = 49: (0, 20, 0, 15, 7, 9, 17, 0, 25, 0, 0, 0)
s = 50: (0, 14, 0, 17, 4, 12, 14, 0, 9, 0, 0, 0)
s = 51: (0, 13, 0, 25, 5, 16, 14, 0, 11, 0, 0, 0)
s = 52: (0, 26, 0, 19, 7, 11, 20, 0, 17, 0, 0, 0)
s = 53: (0, 23, 0, 20, 5, 13, 17, 0, 13, 0, 0, 0)
s = 54: (0, 24, 0, 16, 7, 13, 21, 0, 16, 0, 0, 0)
s = 55: (0, 12, 0, 15, 5, 10, 10, 0, 14, 0, 0, 0)
s = 56: (0, 17, 0, 13, 8, 17, 12, 0, 10, 0, 0, 0)
s = 57: (0, 16, 0, 12, 6, 13, 11, 0, 18, 0, 0, 0)
s = 58: (0, 26, 0, 25, 8, 12, 10, 0, 24, 0, 0, 0)
s = 59: (0, 26, 0, 19, 7, 21, 11, 0, 19, 0, 0, 0)
s = 60: (0, 16, 0, 16, 4, 15, 9, 0, 20, 0, 0, 0)
s = 61: (0, 29, 0, 14, 4, 14, 10, 0, 17, 0, 0, 0)
s = 62: (0, 26, 0, 16, 9, 11, 10, 0, 12, 0, 0, 0)
s = 63: (0, 26, 0, 18, 4, 15, 16, 0, 13, 0, 0, 0)
s = 64: (0, 21, 0, 18, 9, 16, 8, 0, 13, 0, 0, 0)
s = 65: (0, 19, 0, 16, 8, 14, 15, 0, 15, 0, 0, 0)
s = 66: (0, 28, 0, 23, 6, 20, 12, 0, 23, 0, 0, 0)
s = 67: (0, 17, 0, 17, 9, 8, 11, 0, 13, 0, 0, 0)
s = 68: (0, 27, 0, 21, 9, 8, 10, 0, 12, 0, 0, 0)
s = 69: (0, 13, 0, 14, 5, 16, 20, 0, 16, 0, 0, 0)
s = 70: (0, 15, 0, 20, 6, 13, 20, 0, 14, 0, 0, 0)
s = 71: (0, 18, 0, 11, 5, 14, 19, 0, 19, 0, 0, 0)
s = 72: (0, 22, 0, 21, 8, 12, 15, 0, 15, 0, 0, 0)
s = 73: (0, 19, 0, 18, 8, 11, 9, 0, 10, 0, 0, 0)
s = 74: (0, 20, 0, 12, 4, 11, 14, 0, 15, 0, 0, 0)
s = 75: (0, 28, 0, 20, 5, 15, 20, 0, 14, 0, 0, 0)
s = 76: (0, 18, 0, 17, 7, 12, 9, 0, 14, 0, 0, 0)
s = 77: (0, 20, 0, 19, 11, 14, 9, 0, 18, 0, 0, 0)
s = 78: (0, 22, 0, 20, 5, 14, 12, 0, 19, 0, 0, 0)
s = 79: (0, 25, 0, 18, 5, 17, 8, 0, 10, 0, 0, 0)
s = 80: (0, 16, 0, 15, 6, 14, 16, 0, 19, 0, 0, 0)
s = 81: (0, 18, 0, 20, 5, 16, 13, 0, 24, 0, 0, 0)
s = 82: (0, 27, 0, 16, 5, 14, 10, 0, 23, 0, 0, 0)
s = 83: (0, 13, 0, 15, 4, 10, 13, 0, 9, 0, 0, 0)
s = 84: (0, 21, 0, 14, 4, 16, 9, 0, 13, 0, 0, 0)
s = 85: (0, 21, 0, 15, 11, 16, 16, 0, 15, 0, 0, 0)
s = 86: (0, 31, 0, 14, 5, 18, 14, 0, 17, 0, 0, 0)
s = 87: (0, 14, 0, 12, 6, 15, 8, 0, 23, 0, 0, 0)
s = 88: (0, 29, 0, 17, 5, 15, 11, 0, 14, 0, 0, 0)
s = 89: (0, 29, 0, 31, 9, 16, 8, 0, 17, 0, 0, 0)
s = 90: (0, 16, 0, 27, 5, 17, 10, 0, 21, 0, 0, 0)
s = 91: (0, 22, 0, 16, 5, 19, 10, 0, 12, 0, 0, 0)
s = 92: (0, 22, 0, 26, 10, 11, 8, 0, 9, 0, 0, 0)
s = 93: (0, 21, 0, 20, 4, 10, 20, 0, 13, 0, 0, 0)
s = 94: (0, 29, 0, 15, 4, 11, 12, 0, 20, 0, 0, 0)
s = 95: (0, 16, 0, 15, 7, 8, 17, 0, 19, 0, 0, 0)
s = 96: (0, 15, 0, 19, 7, 15, 19, 0, 12, 0, 0, 0)
s = 97: (0, 20, 0, 17, 6, 11, 8, 0, 20, 0, 0, 0)
s = 98: (0, 29, 0, 16, 5, 9, 11, 0, 24, 0, 0, 0)
s = 99: (0, 16, 0, 15, 7, 14, 9, 0, 15, 0, 0, 0)
s = 100: (0, 19, 0, 17, 4, 13, 10, 0, 12, 0, 0, 0)
s = 101: (0, 22, 0, 17, 8, 13, 17, 0, 12, 0, 0, 0)
s = 102: (0, 15, 0, 18, 9, 12, 14, 0, 24, 0, 0, 0)
s = 103: (0, 29, 0, 22, 7, 9, 11, 0, 11, 0, 0, 0)
s = 104: (0, 28, 0, 18, 5, 9, 15, 0, 14, 0, 0, 0)
s = 105: (0, 17, 0, 21, 7, 14, 9, 0, 12, 0, 0, 0)
s = 106: (0, 27, 0, 13, 7, 16, 12, 0, 20, 0, 0, 0)
s = 107: (0, 28, 0, 14, 5, 10, 13, 0, 9, 0, 0, 0)
s = 108: (0, 23, 0, 13, 6, 17, 11, 0, 18, 0, 0, 0)
s = 109: (0, 25, 0, 15, 7, 8, 8, 0, 11, 0, 0, 0)
s = 110: (0, 27, 0, 24, 4, 11, 7, 0, 19, 0, 0, 0)
s = 111: (0, 21, 0, 28, 6, 15, 15, 0, 17, 0, 0, 0)
s = 112: (0, 28, 0, 12, 6, 12, 12, 0, 19, 0, 0, 0)
s = 113: (0, 22, 0, 23, 8, 8, 7, 0, 13, 0, 0, 0)
s = 114: (0, 15, 0, 15, 7, 9, 9, 0, 11, 0, 0, 0)
s = 115: (0, 15, 0, 18, 5, 15, 16, 0, 19, 0, 0, 0)
s = 116: (0, 32, 0, 37, 9, 11, 11, 0, 17, 0, 0, 0)
s = 117: (0, 17, 0, 13, 6, 13, 11, 0, 21, 0, 0, 0)
s = 118: (0, 31, 0, 15, 7, 12, 18, 0, 23, 0, 0, 0)
s = 119: (0, 14, 0, 23, 6, 15, 17, 0, 14, 0, 0, 0)
s = 120: (0, 25, 0, 10, 6, 11, 11, 0, 22, 0, 0, 0)
s = 121: (0, 19, 0, 15, 7, 16, 20, 0, 13, 0, 0, 0)
s = 122: (0, 22, 0, 20, 5, 18, 9, 0, 11, 0, 0, 0)
s = 123: (0, 30, 0, 20, 9, 15, 12, 0, 13, 0, 0, 0)
s = 124: (0, 24, 0, 13, 7, 12, 10, 0, 25, 0, 0, 0)
s = 125: (0, 15, 0, 25, 6, 11, 13, 0, 12, 0, 0, 0)
s = 126: (0, 19, 0, 23, 6, 16, 9, 0, 30, 0, 0, 0)
s = 127: (0, 22, 0, 24, 6, 14, 10, 0, 11, 0, 0, 0)
s = 128: (0, 27, 0, 18, 5, 19, 10, 0, 16, 0, 0, 0)
s = 129: (0, 29, 0, 23, 6, 11, 12, 0, 11, 0, 0, 0)
s = 130: (0, 23, 0, 11, 5, 13, 9, 0, 22, 0, 0, 0)
s = 131: (0, 25, 0, 12, 5, 17, 8, 0, 12, 0, 0, 0)
s = 132: (0, 17, 0, 28, 7, 11, 9, 0, 20, 0, 0, 0)
s = 133: (0, 20, 0, 17, 6, 17, 12, 0, 21, 0, 0, 0)
s = 134: (0, 28, 0, 14, 5, 13, 10, 0, 23, 0, 0, 0)
s = 135: (0, 22, 0, 19, 6, 10, 10, 0, 22, 0, 0, 0)
s = 136: (0, 19, 0, 18, 4, 15, 12, 0, 10, 0, 0, 0)
s = 137: (0, 26, 0, 22, 8, 11, 10, 0, 13, 0, 0, 0)
s = 138: (0, 16, 0, 32, 5, 15, 15, 0, 15, 0, 0, 0)
s = 139: (0, 14, 0, 29, 6, 10, 10, 0, 20, 0, 0, 0)
s = 140: (0, 36, 0, 15, 4, 19, 9, 0, 15, 0, 0, 0)
s = 141: (0, 18, 0, 20, 10, 7, 14, 0, 17, 0, 0, 0)
s = 142: (0, 31, 0, 16, 7, 11, 8, 0, 13, 0, 0, 0)
s = 143: (0, 14, 0, 13, 6, 13, 11, 0, 22, 0, 0, 0)
s = 144: (0, 18, 0, 24, 8, 13, 15, 0, 19, 0, 0, 0)
s = 145: (0, 20, 0, 19, 7, 8, 12, 0, 14, 0, 0, 0)
s = 146: (0, 14, 0, 13, 5, 14, 10, 0, 22, 0, 0, 0)
s = 147: (0, 19, 0, 16, 8, 17, 7, 0, 12, 0, 0, 0)
s = 148: (0, 33, 0, 23, 5, 10, 20, 0, 22, 0, 0, 0)
s = 149: (0, 14, 0, 29, 4, 7, 14, 0, 18, 0, 0, 0)
s = 150: (0, 25, 0, 17, 4, 9, 16, 0, 24, 0, 0, 0)
s = 151: (0, 28, 0, 29, 8, 14, 18, 0, 14, 0, 0, 0)
s = 152: (0, 26, 0, 27, 9, 15, 14, 0, 12, 0, 0, 0)
s = 153: (0, 21, 0, 24, 7, 11, 9, 0, 21, 0, 0, 0)
s = 154: (0, 17, 0, 16, 5, 15, 9, 0, 12, 0, 0, 0)
s = 155: (0, 31, 0, 15, 5, 14, 8, 0, 15, 0, 0, 0)
s = 156: (0, 30, 0, 20, 8, 10, 10, 0, 23, 0, 0, 0)
s = 157: (0, 12, 0, 29, 5, 13, 13, 0, 22, 0, 0, 0)
s = 158: (0, 23, 0, 16, 5, 15, 9, 0, 14, 0, 0, 0)
s = 159: (0, 30, 0, 18, 8, 14, 13, 0, 16, 0, 0, 0)
s = 160: (0, 23, 0, 14, 10, 8, 14, 0, 12, 0, 0, 0)
s = 161: (0, 15, 0, 17, 8, 10, 13, 0, 15, 0, 0, 0)
s = 162: (0, 42, 0, 16, 5, 14, 11, 0, 18, 0, 0, 0)
s = 163: (0, 28, 0, 14, 10, 19, 14, 0, 19, 0, 0, 0)
s = 164: (0, 20, 0, 12, 5, 13, 11, 0, 13, 0, 0, 0)
s = 165: (0, 31, 0, 14, 5, 18, 10, 0, 17, 0, 0, 0)
s = 166: (0, 31, 0, 18, 7, 15, 12, 0, 28, 0, 0, 0)
s = 167: (0, 30, 0, 19, 5, 12, 16, 0, 14, 0, 0, 0)
s = 168: (0, 18, 0, 19, 9, 12, 12, 0, 22, 0, 0, 0)
s = 169: (0, 16, 0, 23, 11, 10, 14, 0, 10, 0, 0, 0)
s = 170: (0, 20, 0, 22, 6, 13, 13, 0, 11, 0, 0, 0)
s = 171: (0, 23, 0, 16, 6, 14, 10, 0, 18, 0, 0, 0)
s = 172: (0, 29, 0, 10, 8, 13, 15, 0, 15, 0, 0, 0)
s = 173: (0, 24, 0, 19, 4, 15, 12, 0, 14, 0, 0, 0)
s = 174: (0, 18, 0, 17, 7, 9, 17, 0, 14, 0, 0, 0)
s = 175: (0, 16, 0, 12, 8, 12, 17, 0, 19, 0, 0, 0)
s = 176: (0, 24, 0, 13, 6, 9, 9, 0, 17, 0, 0, 0)
s = 177: (0, 23, 0, 11, 5, 8, 7, 0, 17, 0, 0, 0)
s = 178: (0, 30, 0, 21, 9, 9, 7, 0, 11, 0, 0, 0)
s = 179: (0, 22, 0, 19, 7, 16, 15, 0, 18, 0, 0, 0)
s = 180: (0, 20, 0, 18, 6, 12, 14, 0, 12, 0, 0, 0)
s = 181: (0, 14, 0, 27, 7, 13, 11, 0, 17, 0, 0, 0)
s = 182: (0, 20, 0, 17, 7, 13, 15, 0, 14, 0, 0, 0)
s = 183: (0, 31, 0, 21, 6, 9, 14, 0, 23, 0, 0, 0)
s = 184: (0, 19, 0, 18, 6, 8, 14, 0, 14, 0, 0, 0)
s = 185: (0, 14, 0, 13, 6, 10, 8, 0, 22, 0, 0, 0)
s = 186: (0, 21, 0, 10, 5, 15, 9, 0, 19, 0, 0, 0)
s = 187: (0, 20, 0, 14, 6, 12, 14, 0, 16, 0, 0, 0)
s = 188: (0, 32, 0, 17, 6, 9, 11, 0, 28, 0, 0, 0)
s = 189: (0, 16, 0, 22, 8, 14, 11, 0, 15, 0, 0, 0)
s = 190: (0, 15, 0, 23, 10, 16, 17, 0, 14, 0, 0, 0)
s = 191: (0, 16, 0, 21, 4, 12, 12, 0, 22, 0, 0, 0)
s = 192: (0, 20, 0, 27, 8, 8, 17, 0, 18, 0, 0, 0)
s = 193: (0, 14, 0, 19, 9, 14, 11, 0, 15, 0, 0, 0)
s = 194: (0, 24, 0, 18, 10, 13, 12, 0, 18, 0, 0, 0)
s = 195: (0, 23, 0, 18, 4, 7, 12, 0, 17, 0, 0, 0)
s = 196: (0, 13, 0, 22, 5, 16, 11, 0, 24, 0, 0, 0)
s = 197: (0, 16, 0, 21, 5, 13, 13, 0, 9, 0, 0, 0)
s = 198: (0, 18, 0, 26, 8, 8, 9, 0, 15, 0, 0, 0)
s = 199: (0, 13, 0, 12, 6, 12, 9, 0, 27, 0, 0, 0)
s = 200: (0, 21, 0, 23, 8, 8, 9, 0, 19, 0, 0, 0)
************************************************************************
ES/LS-VALUES:
jobnr.   ES(i)    LS(i)
------------------------------------------------------------------------
  0        0        0
  1        0       71
  2        0       64
  3        0       72
  4        2       77
  5        2       66
  6        7       72
  7        7       77
  8       14       79
  9       14       81
 10        7       77
 11       17       83
************************************************************************
BIG-M-VALUES:
M1 = 32, M2 = 120
************************************************************************
